7 3
0 46 118 40 96 98 46 
46 0 88 10 53 127 3 
118 88 0 85 53 137 85 
40 10 85 0 56 117 8 
96 53 53 56 0 154 51 
98 127 137 117 154 0 125 
46 3 85 8 51 125 0 
0 1 3297 341 8 0 2684 
1 0 0 0 0 7 222 
3297 0 0 23 39589 10507 0 
341 0 23 0 4490 5 0 
8 0 39589 4490 0 2 27 
0 7 10507 5 2 0 52 
2684 222 0 0 27 52 0 
0 0 0 0 0 326 0 
0 0 3121 4 32851 0 0 
0 3121 0 0 0 0 86020 
0 4 0 0 0 0 4648 
0 32851 0 0 0 0 0 
326 0 0 0 0 0 0 
0 0 86020 4648 0 0 0 
0 0 0 0 0 32263 0 
0 0 2592 37 12250 0 0 
0 2592 0 0 0 0 30303 
0 37 0 0 0 0 412 
0 12250 0 0 0 0 0 
32263 0 0 0 0 0 0 
0 0 30303 412 0 0 0 
